letting n =  10
letting blocks =  [[1, 2], [1, 7], [2, 3], [2, 7], [3, 2], [3, 3], [3, 4], [4, 1], [4, 2], [4, 3], [4, 4], [5, 1], [5, 4], [5, 5], [5, 10], [6, 4], [6, 5], [6, 7], [6, 8], [6, 9], [7, 2], [7, 3], [7, 4], [7, 7], [7, 9], [8, 1], [8, 7], [8, 9], [8, 10], [9, 1], [9, 4], [9, 5], [9, 6], [9, 7], [9, 10], [10, 2], [10, 3], [10, 6]]
